N = 14;
H = 6;
T = 2;

avail = array3d(1..N, 1..H, 1..T, [10, 9, 10, 2, 10, 2, 2, 9, 0, 9, 0, 7, 8, 1, 7, 6, 6, 5, 3, 6, 4, 4, 3, 9, 9, 2, 5, 7, 1, 7, 4, 3, 5, 9, 10, 4, 1, 2, 3, 5, 2, 1, 5, 2, 6, 5, 7, 8, 8, 0, 2, 10, 2, 2, 5, 8, 8, 8, 8, 1, 9, 3, 1, 0, 4, 10, 3, 0, 7, 5, 5, 3, 1, 4, 3, 10, 8, 8, 0, 1, 10, 6, 8, 3, 8, 4, 2, 1, 10, 1, 10, 7, 8, 8, 8, 4, 5, 0, 5, 3, 5, 6, 8, 1, 4, 10, 9, 7, 2, 6, 7, 5, 0, 9, 8, 5, 6, 3, 6, 1, 1, 9, 1, 6, 6, 8, 3, 7, 7, 7, 3, 8, 3, 0, 9, 0, 4, 5, 9, 4, 7, 2, 2, 10, 3, 2, 9, 9, 6, 0, 6, 6, 7, 8, 6, 7, 2, 9, 8, 4, 7, 3, 2, 9, 3, 5, 9, 2]);

r = array2d(1..H, 1..T, [4, 3, 1, 5, 0, 0, 5, 1, 2, 4, 2, 3]);
